p tw 31 35
1 2
2 3
11 12
11 14
12 13
12 14
13 30
14 15
15 16
16 17
16 26
17 18
18 19
18 26
19 20
20 21
3 4
21 22
22 23
23 24
24 25
26 27
27 28
28 29
29 30
30 31
4 5
5 25
5 6
6 7
7 26
7 8
8 9
9 10
10 11
